%chk=
%mem=100GB
%NProcShared=2
#P jobtype method/base

title

charge spin
geom

